\ LP format - for model browsing. Use MPS format to capture full model detail.
Minimize
  33.30165161069343 x[0,1] + 14.7648230602334 x[0,2]
   + 21.09502310972899 x[0,3] + 53.74011537017761 x[0,4]
   + 51.86520991955976 x[0,5] + 21.09502310972899 x[0,6]
   + 48.02082881417188 x[0,7] + 7 x[0,8] + 51.62363799656123 x[0,9]
   + 46.95742752749558 x[0,10] + 33.30165161069343 x[1,0]
   + 33.24154027718932 x[1,2] + 50.15974481593781 x[1,3] + 65 x[1,4]
   + 85 x[1,5] + 14.56021977856104 x[1,6] + 81.02468759581859 x[1,7]
   + 38.8329756778952 x[1,8] + 62.81719509815764 x[1,9]
   + 50.15974481593781 x[1,10] + 14.7648230602334 x[2,0]
   + 33.24154027718932 x[2,1] + 17.80449381476486 x[2,3]
   + 39.82461550347976 x[2,4] + 55.31726674375732 x[2,5]
   + 18.68154169226941 x[2,6] + 50.99019513592785 x[2,7] + 13 x[2,8]
   + 37.64306044943742 x[2,9] + 32.20248437620923 x[2,10]
   + 21.09502310972899 x[3,0] + 50.15974481593781 x[3,1]
   + 17.80449381476486 x[3,2] + 39.81205847478876 x[3,4]
   + 38.01315561749642 x[3,5] + 35.77708763999664 x[3,6]
   + 33.60059523282288 x[3,7] + 14.14213562373095 x[3,8]
   + 38.07886552931954 x[3,9] + 40 x[3,10] + 53.74011537017761 x[4,0]
   + 65 x[4,1] + 39.82461550347976 x[4,2] + 39.81205847478876 x[4,3]
   + 67.1863081289633 x[4,5] + 52.92447448959697 x[4,6]
   + 63.07138812488591 x[4,7] + 49.04079934095692 x[4,8]
   + 2.23606797749979 x[4,9] + 17.46424919657298 x[4,10]
   + 51.86520991955976 x[5,0] + 85 x[5,1] + 55.31726674375732 x[5,2]
   + 38.01315561749642 x[5,3] + 67.1863081289633 x[5,4]
   + 71.58910531638176 x[5,6] + 4.47213595499958 x[5,7]
   + 46.22769732530488 x[5,8] + 66.37017402418047 x[5,9]
   + 74.33034373659252 x[5,10] + 21.09502310972899 x[6,0]
   + 14.56021977856104 x[6,1] + 18.68154169226941 x[6,2]
   + 35.77708763999664 x[6,3] + 52.92447448959697 x[6,4]
   + 71.58910531638176 x[6,5] + 67.47592163134935 x[6,7]
   + 25.45584412271571 x[6,8] + 50.69516742254631 x[6,9] + 40 x[6,10]
   + 48.02082881417188 x[7,0] + 81.02468759581859 x[7,1]
   + 50.99019513592785 x[7,2] + 33.60059523282288 x[7,3]
   + 63.07138812488591 x[7,4] + 4.47213595499958 x[7,5]
   + 67.47592163134935 x[7,6] + 42.20189569201838 x[7,8]
   + 62.20128616033595 x[7,9] + 69.92138442565336 x[7,10] + 7 x[8,0]
   + 38.8329756778952 x[8,1] + 13 x[8,2] + 14.14213562373095 x[8,3]
   + 49.04079934095692 x[8,4] + 46.22769732530488 x[8,5]
   + 25.45584412271571 x[8,6] + 42.20189569201838 x[8,7]
   + 47.01063709417264 x[8,9] + 44.27188724235731 x[8,10]
   + 51.62363799656123 x[9,0] + 62.81719509815764 x[9,1]
   + 37.64306044943742 x[9,2] + 38.07886552931954 x[9,3]
   + 2.23606797749979 x[9,4] + 66.37017402418047 x[9,5]
   + 50.69516742254631 x[9,6] + 62.20128616033595 x[9,7]
   + 47.01063709417264 x[9,8] + 15.8113883008419 x[9,10]
   + 46.95742752749558 x[10,0] + 50.15974481593781 x[10,1]
   + 32.20248437620923 x[10,2] + 40 x[10,3] + 17.46424919657298 x[10,4]
   + 74.33034373659252 x[10,5] + 40 x[10,6] + 69.92138442565336 x[10,7]
   + 44.27188724235731 x[10,8] + 15.8113883008419 x[10,9]
Subject To
 DegreeConstraintOutgoing_0: x[4,1] + x[4,2] + x[4,3] + x[4,5] + x[4,6]
   + x[4,7] + x[4,8] + x[9,1] + x[9,2] + x[9,3] + x[9,5] + x[9,6] + x[9,7]
   + x[9,8] + x[10,1] + x[10,2] + x[10,3] + x[10,5] + x[10,6] + x[10,7]
   + x[10,8] = 1
 DegreeConstraintIncoming_0: x[1,4] + x[1,9] + x[1,10] + x[2,4] + x[2,9]
   + x[2,10] + x[3,4] + x[3,9] + x[3,10] + x[5,4] + x[5,9] + x[5,10]
   + x[6,4] + x[6,9] + x[6,10] + x[7,4] + x[7,9] + x[7,10] + x[8,4]
   + x[8,9] + x[8,10] = 1
 DegreeConstraintOutgoing_1: x[5,1] + x[5,2] + x[5,3] + x[5,4] + x[5,6]
   + x[5,8] + x[5,9] + x[5,10] + x[7,1] + x[7,2] + x[7,3] + x[7,4] + x[7,6]
   + x[7,8] + x[7,9] + x[7,10] = 1
 DegreeConstraintIncoming_1: x[1,5] + x[1,7] + x[2,5] + x[2,7] + x[3,5]
   + x[3,7] + x[4,5] + x[4,7] + x[6,5] + x[6,7] + x[8,5] + x[8,7] + x[9,5]
   + x[9,7] + x[10,5] + x[10,7] = 1
 DegreeConstraintOutgoing_2: x[1,4] + x[1,5] + x[1,7] + x[1,9] + x[1,10]
   + x[2,4] + x[2,5] + x[2,7] + x[2,9] + x[2,10] + x[3,4] + x[3,5] + x[3,7]
   + x[3,9] + x[3,10] + x[6,4] + x[6,5] + x[6,7] + x[6,9] + x[6,10]
   + x[8,4] + x[8,5] + x[8,7] + x[8,9] + x[8,10] = 1
 DegreeConstraintIncoming_2: x[4,1] + x[4,2] + x[4,3] + x[4,6] + x[4,8]
   + x[5,1] + x[5,2] + x[5,3] + x[5,6] + x[5,8] + x[7,1] + x[7,2] + x[7,3]
   + x[7,6] + x[7,8] + x[9,1] + x[9,2] + x[9,3] + x[9,6] + x[9,8] + x[10,1]
   + x[10,2] + x[10,3] + x[10,6] + x[10,8] = 1
 HomeOutgoing: x[0,1] + x[0,2] + x[0,3] + x[0,4] + x[0,5] + x[0,6] + x[0,7]
   + x[0,8] + x[0,9] + x[0,10] = 1
 HomeIncoming: x[1,0] + x[2,0] + x[3,0] + x[4,0] + x[5,0] + x[6,0] + x[7,0]
   + x[8,0] + x[9,0] + x[10,0] = 1
 FlowConservationForNode_4: - x[1,4] - x[2,4] - x[3,4] + x[4,1] + x[4,2]
   + x[4,3] + x[4,5] + x[4,6] + x[4,7] + x[4,8] - x[5,4] - x[6,4] - x[7,4]
   - x[8,4] = 0
 FlowConservationForNode_9: - x[1,9] - x[2,9] - x[3,9] - x[5,9] - x[6,9]
   - x[7,9] - x[8,9] + x[9,1] + x[9,2] + x[9,3] + x[9,5] + x[9,6] + x[9,7]
   + x[9,8] = 0
 FlowConservationForNode_10: - x[1,10] - x[2,10] - x[3,10] - x[5,10]
   - x[6,10] - x[7,10] - x[8,10] + x[10,1] + x[10,2] + x[10,3] + x[10,5]
   + x[10,6] + x[10,7] + x[10,8] = 0
 FlowConservationForNode_5: - x[1,5] - x[2,5] - x[3,5] - x[4,5] + x[5,1]
   + x[5,2] + x[5,3] + x[5,4] + x[5,6] + x[5,8] + x[5,9] + x[5,10] - x[6,5]
   - x[8,5] - x[9,5] - x[10,5] = 0
 FlowConservationForNode_7: - x[1,7] - x[2,7] - x[3,7] - x[4,7] - x[6,7]
   + x[7,1] + x[7,2] + x[7,3] + x[7,4] + x[7,6] + x[7,8] + x[7,9] + x[7,10]
   - x[8,7] - x[9,7] - x[10,7] = 0
 FlowConservationForNode_1: x[1,4] + x[1,5] + x[1,7] + x[1,9] + x[1,10]
   - x[4,1] - x[5,1] - x[7,1] - x[9,1] - x[10,1] = 0
 FlowConservationForNode_2: x[2,4] + x[2,5] + x[2,7] + x[2,9] + x[2,10]
   - x[4,2] - x[5,2] - x[7,2] - x[9,2] - x[10,2] = 0
 FlowConservationForNode_3: x[3,4] + x[3,5] + x[3,7] + x[3,9] + x[3,10]
   - x[4,3] - x[5,3] - x[7,3] - x[9,3] - x[10,3] = 0
 FlowConservationForNode_6: - x[4,6] - x[5,6] + x[6,4] + x[6,5] + x[6,7]
   + x[6,9] + x[6,10] - x[7,6] - x[9,6] - x[10,6] = 0
 FlowConservationForNode_8: - x[4,8] - x[5,8] - x[7,8] + x[8,4] + x[8,5]
   + x[8,7] + x[8,9] + x[8,10] - x[9,8] - x[10,8] = 0
 ClustersConnected_-1to0: - x[0,4] - x[0,9] - x[0,10] + y[-1,0] = 0
 ClustersConnected_-1to1: - x[0,5] - x[0,7] + y[-1,1] = 0
 ClustersConnected_-1to2: - x[0,1] - x[0,2] - x[0,3] - x[0,6] - x[0,8]
   + y[-1,2] = 0
 ClustersConnected_0to-1: - x[4,0] - x[9,0] - x[10,0] + y[0,-1] = 0
 ClustersConnected_0to1: - x[4,5] - x[4,7] - x[9,5] - x[9,7] - x[10,5]
   - x[10,7] + y[0,1] = 0
 ClustersConnected_0to2: - x[4,1] - x[4,2] - x[4,3] - x[4,6] - x[4,8]
   - x[9,1] - x[9,2] - x[9,3] - x[9,6] - x[9,8] - x[10,1] - x[10,2]
   - x[10,3] - x[10,6] - x[10,8] + y[0,2] = 0
 ClustersConnected_1to-1: - x[5,0] - x[7,0] + y[1,-1] = 0
 ClustersConnected_1to0: - x[5,4] - x[5,9] - x[5,10] - x[7,4] - x[7,9]
   - x[7,10] + y[1,0] = 0
 ClustersConnected_1to2: - x[5,1] - x[5,2] - x[5,3] - x[5,6] - x[5,8]
   - x[7,1] - x[7,2] - x[7,3] - x[7,6] - x[7,8] + y[1,2] = 0
 ClustersConnected_2to-1: - x[1,0] - x[2,0] - x[3,0] - x[6,0] - x[8,0]
   + y[2,-1] = 0
 ClustersConnected_2to0: - x[1,4] - x[1,9] - x[1,10] - x[2,4] - x[2,9]
   - x[2,10] - x[3,4] - x[3,9] - x[3,10] - x[6,4] - x[6,9] - x[6,10]
   - x[8,4] - x[8,9] - x[8,10] + y[2,0] = 0
 ClustersConnected_2to1: - x[1,5] - x[1,7] - x[2,5] - x[2,7] - x[3,5]
   - x[3,7] - x[6,5] - x[6,7] - x[8,5] - x[8,7] + y[2,1] = 0
 LoadConstraintCluster0: 388 y[-1,0] - 4 y[0,-1] + u[0] <= 396
 LoadConstraintCluster1: 388 y[-1,1] - 8 y[1,-1] + u[1] <= 392
 LoadConstraintCluster2: 377 y[-1,2] - 4 y[2,-1] + u[2] <= 396
 MinLoadDeliveredBeforeReturntoDepo0: 4 y[-1,0] + 11 y[0,-1] + u[0] >= 12
 MinLoadDeliveredBeforeReturntoDepo1: 8 y[-1,1] + 11 y[1,-1] + u[1] >= 12
 MinLoadDeliveredBeforeReturntoDepo2: 4 y[-1,2] + 22 y[2,-1] + u[2] >= 23
 NoSingleCustomerVisits0: y[-1,0] + y[0,-1] <= 1
 NoSingleCustomerVisits1: y[-1,1] + y[1,-1] <= 1
 NoSingleCustomerVisits2: y[-1,2] + y[2,-1] <= 1
 ContinuityBetweenClusters[0,1]: 400 y[0,1] + 388 y[1,0] + u[0] - u[1]
   <= 396
 ContinuityBetweenClusters[0,2]: 400 y[0,2] + 373 y[2,0] + u[0] - u[2]
   <= 381
 ContinuityBetweenClusters[1,0]: 388 y[0,1] + 400 y[1,0] - u[0] + u[1]
   <= 392
 ContinuityBetweenClusters[1,2]: 400 y[1,2] + 377 y[2,1] + u[1] - u[2]
   <= 381
 ContinuityBetweenClusters[2,0]: 373 y[0,2] + 400 y[2,0] - u[0] + u[2]
   <= 392
 ContinuityBetweenClusters[2,1]: 377 y[1,2] + 400 y[2,1] - u[1] + u[2]
   <= 396
 Non_negativeU[0]: u[0] >= 0
 Non_negativeU[1]: u[1] >= 0
 Non_negativeU[2]: u[2] >= 0
 Non_negativeY: y[-1,0] >= 0
 Non_negativeY: y[-1,1] >= 0
 Non_negativeY: y[-1,2] >= 0
 Non_negativeY: y[0,-1] >= 0
 Non_negativeY: y[0,1] >= 0
 Non_negativeY: y[0,2] >= 0
 Non_negativeY: y[1,-1] >= 0
 Non_negativeY: y[1,0] >= 0
 Non_negativeY: y[1,2] >= 0
 Non_negativeY: y[2,-1] >= 0
 Non_negativeY: y[2,0] >= 0
 Non_negativeY: y[2,1] >= 0
Bounds
Binaries
 x[0,1] x[0,2] x[0,3] x[0,4] x[0,5] x[0,6] x[0,7] x[0,8] x[0,9] x[0,10]
 x[1,0] x[1,2] x[1,3] x[1,4] x[1,5] x[1,6] x[1,7] x[1,8] x[1,9] x[1,10]
 x[2,0] x[2,1] x[2,3] x[2,4] x[2,5] x[2,6] x[2,7] x[2,8] x[2,9] x[2,10]
 x[3,0] x[3,1] x[3,2] x[3,4] x[3,5] x[3,6] x[3,7] x[3,8] x[3,9] x[3,10]
 x[4,0] x[4,1] x[4,2] x[4,3] x[4,5] x[4,6] x[4,7] x[4,8] x[4,9] x[4,10]
 x[5,0] x[5,1] x[5,2] x[5,3] x[5,4] x[5,6] x[5,7] x[5,8] x[5,9] x[5,10]
 x[6,0] x[6,1] x[6,2] x[6,3] x[6,4] x[6,5] x[6,7] x[6,8] x[6,9] x[6,10]
 x[7,0] x[7,1] x[7,2] x[7,3] x[7,4] x[7,5] x[7,6] x[7,8] x[7,9] x[7,10]
 x[8,0] x[8,1] x[8,2] x[8,3] x[8,4] x[8,5] x[8,6] x[8,7] x[8,9] x[8,10]
 x[9,0] x[9,1] x[9,2] x[9,3] x[9,4] x[9,5] x[9,6] x[9,7] x[9,8] x[9,10]
 x[10,0] x[10,1] x[10,2] x[10,3] x[10,4] x[10,5] x[10,6] x[10,7] x[10,8]
 x[10,9]
Generals
 y[-1,0] y[-1,1] y[-1,2] y[0,-1] y[0,1] y[0,2] y[1,-1] y[1,0] y[1,2]
 y[2,-1] y[2,0] y[2,1] u[0] u[1] u[2]
End
